g3 0 1 0	# problem d7n5R2R6d005d05
 5 7 1 0 2	# vars, constraints, objectives, ranges, eqns
 2 1	# nonlinear constraints, objectives
 0 0	# network constraints: nonlinear, linear
 5 5 5	# nonlinear vars in constraints, objectives, both
 0 0 0 1	# linear network variables; functions; arith, flags
 0 0 0 0 0	# discrete variables: binary, integer, nonlinear (b,c,o)
 29 5	# nonzeros in Jacobian, gradients
 0 0	# max name lengths: constraints, variables
 0 0 0 0 0	# common exprs: b,c,o,c1,o1
b
0 0.28 2.41
0 0.57 2.62
0 0.83 2.54
0 0.7 2.7
0 0.87 2.64
r
2 153.634
2 286.372
4 5.212
4 -1.515
2 25.616
2 8.602
2 28.774
C0
o0
o2
o2
o2
o2
n8.47
v1
v3
v4
v4
o2
o2
o2
o2
n4.04
v3
v3
v4
v4
C1
o54
6
o2
o2
o2
o2
n4.04
v1
v3
v4
v4
o2
o2
o2
o2
n4.81
v3
v3
v4
v4
o2
o2
o2
o2
o2
n8.88
v0
v0
v2
v3
v3
o2
o2
o2
o2
o2
n9
v0
v1
v1
v4
v4
o2
o2
o2
o2
o2
n4.51
v1
v1
v3
v3
v3
o16
o2
o2
o2
o2
o2
n3.85
v2
v2
v2
v3
v4
C2
n0
C3
n0
C4
n0
C5
n0
C6
n0
O0 0
o54
39
o2
o2
o2
o2
n8.81
v1
v3
v4
v4
o2
o2
o2
o2
n9.77
v3
v3
v4
v4
o2
o2
o2
o2
o2
n0.96
v0
v0
v2
v3
v3
o2
o2
o2
o2
o2
n2.14
v0
v1
v1
v4
v4
o2
o2
o2
o2
o2
n7.85
v1
v1
v3
v3
v3
o2
o2
o2
o2
o2
n2.28
v2
v2
v2
v3
v4
o2
o2
o2
o2
o2
o2
n5.54
v0
v0
v0
v0
v1
v3
o2
o2
o2
o2
o2
o2
n3.55
v0
v0
v0
v4
v4
v4
o2
o2
o2
o2
o2
o2
n5.5
v0
v0
v2
v3
v4
v4
o2
o2
o2
o2
o2
o2
n0.92
v0
v1
v1
v1
v4
v4
o2
o2
o2
o2
o2
o2
n7.75
v0
v1
v2
v2
v2
v4
o16
o2
o2
o2
o2
o2
o2
n1.37
v1
v1
v1
v1
v1
v2
o2
o2
o2
o2
o2
o2
n6.68
v1
v1
v1
v1
v3
v4
o2
o2
o2
o2
o2
o2
n9.03
v1
v1
v1
v2
v3
v3
o2
o2
o2
o2
o2
o2
n10
v1
v1
v2
v2
v2
v2
o2
o2
o2
o2
o2
o2
n7.94
v1
v1
v4
v4
v4
v4
o2
o2
o2
o2
o2
o2
n6.04
v1
v2
v4
v4
v4
v4
o2
o2
o2
o2
o2
o2
n0.23
v2
v2
v2
v4
v4
v4
o2
o2
o2
o2
o2
o2
n9.68
v2
v2
v4
v4
v4
v4
o2
o2
o2
o2
o2
o2
n2.47
v2
v3
v3
v3
v4
v4
o2
o2
o2
o2
o2
o2
n2.42
v3
v4
v4
v4
v4
v4
o2
o2
o2
o2
o2
o2
o2
n8.14
v0
v0
v0
v0
v0
v0
v1
o2
o2
o2
o2
o2
o2
o2
n6.62
v0
v0
v0
v0
v0
v0
v2
o2
o2
o2
o2
o2
o2
o2
n8.87
v0
v0
v0
v0
v0
v1
v2
o2
o2
o2
o2
o2
o2
o2
n9.48
v0
v0
v0
v0
v1
v2
v3
o2
o2
o2
o2
o2
o2
o2
n2.36
v0
v0
v0
v2
v2
v2
v3
o2
o2
o2
o2
o2
o2
o2
n6.91
v0
v0
v1
v1
v2
v2
v3
o2
o2
o2
o2
o2
o2
o2
n9.84
v0
v0
v1
v2
v4
v4
v4
o2
o2
o2
o2
o2
o2
o2
n2.63
v0
v0
v1
v3
v3
v4
v4
o2
o2
o2
o2
o2
o2
o2
n0.68
v0
v1
v1
v2
v2
v3
v3
o2
o2
o2
o2
o2
o2
o2
n2.93
v0
v1
v1
v2
v3
v3
v3
o2
o2
o2
o2
o2
o2
o2
n7.25
v0
v2
v2
v2
v3
v3
v3
o2
o2
o2
o2
o2
o2
o2
n2.18
v1
v1
v1
v1
v2
v3
v4
o2
o2
o2
o2
o2
o2
o2
n7.56
v1
v2
v2
v2
v2
v4
v4
o2
o2
o2
o2
o2
o2
o2
n9.66
v1
v3
v3
v3
v4
v4
v4
o2
o2
o2
o2
o2
o2
o2
n8.72
v2
v2
v2
v2
v2
v2
v2
o2
o2
o2
o2
o2
o2
o2
n2.77
v2
v2
v2
v2
v2
v3
v3
o2
o2
o2
o2
o2
o2
o2
n8.87
v2
v3
v4
v4
v4
v4
v4
o2
o2
o2
o2
o2
o2
o2
n7.18
v3
v3
v3
v3
v3
v4
v4
k4
6
11
16
22
J0 5
0 2.19
1 3.87
2 7.24
3 7.42
4 7.41
J1 5
0 -5.38
1 8.55
2 4.63
3 4.02
4 8.14
J2 2
0 0.13
4 2.87
J3 2
3 7.45
4 -8.08
J4 5
0 -7.4
1 9.61
2 3.78
3 4.65
4 3.4
J5 5
0 0.66
1 3.97
2 1.69
3 -4.63
4 3.65
J6 5
0 1.28
1 4.79
2 3.6
3 1.13
4 6.51
G0 5
0 0.04
1 5.06
2 6.81
3 5.18
4 0.04
